33D32945 STP File, STP Format Version 1.0

SECTION Comments
Name "edge_n12_d4_s1"
Problem "Euclidean Steiner Tree Problem"
Remark "Generated with STPGenerator. 4 dimensions."
END

SECTION Graph
Nodes 12
END

SECTION Coordinates
DDDD 0 0.8401877172 0.8401877172 0.8401877172 0.8401877172
DDDD 1 0.3943829268 0.3943829268 0.3943829268 0.3943829268
DDDD 2 0.7830992238 0.7830992238 0.7830992238 0.7830992238
DDDD 3 0.7984400335 0.7984400335 0.7984400335 0.7984400335
DDDD 4 0.9116473579 0.9116473579 0.9116473579 0.9116473579
DDDD 5 0.1975513693 0.1975513693 0.1975513693 0.1975513693
DDDD 6 0.3352227557 0.3352227557 0.3352227557 0.3352227557
DDDD 7 0.7682295948 0.7682295948 0.7682295948 0.7682295948
DDDD 8 0.2777747108 0.2777747108 0.2777747108 0.2777747108
DDDD 9 0.5539699558 0.5539699558 0.5539699558 0.5539699558
DDDD 10 0.4773970519 0.4773970519 0.4773970519 0.4773970519
DDDD 11 0.6288709248 0.6288709248 0.6288709248 0.6288709248
END
